; Hacker's delight 14, difficulty 5
; floor of average of two integers

(set-logic BV)

(define-fun hd14 ((x (BitVec 32)) (y (BitVec 32))) (BitVec 32) (bvadd (bvand x y) (bvlshr (bvxor x y) #x00000001)))

(synth-fun f ((x (BitVec 32)) (y (BitVec 32))) (BitVec 32)
    ((Start (BitVec 32) ((bvnot Start)
						 (bvxor Start Start)
						 (bvand Start Start)
						 (bvor Start Start)
						 (bvneg Start)
						 (bvadd Start Start)
						 (bvmul Start Start)
						 (bvudiv Start Start)
						 (bvurem Start Start)
						 (bvlshr Start Start)
						 (bvashr Start Start)
						 (bvshl Start Start)
						 (bvsdiv Start Start)
						 (bvsrem Start Start)
						 (bvsub Start Start)
                         x
						 y
						 #x0000001F
						 #x00000001
						 #x00000000
						 #xFFFFFFFF))))

(declare-var x (BitVec 32))
(declare-var y (BitVec 32))
(constraint (= (hd14 x y) (f x y)))
(check-synth)

